
  25    0


   0  12 2 3 4 5 6 7 10 20 21 22 23 24 
   3   5 19 18 16 15 8 
   8   5 17 16 15 14 11 
   9   2 9 8 
   6   3 13 12 11 
   7   2 14 11 
   5   2 13 11 
   3   1 11 
  10   1 12 
   2   1 11 
   7   1 25
   5   1 25
   7   1 25
   1   1 25
   2   1 25
  10   1 25
   4   1 25
  10   1 25
   1   1 25
   8   1 25
   8   1 25
  10   1 25
   2   1 25
   8   1 25
   0   0 
